(set-info :source |printed by MathSAT|)
(declare-fun |!{$(in_main#0)<N>}| () Int)
(declare-fun |!{$(in_main#0)<N>}.next| () Int)
(declare-fun |!{$(in_main#0)<i>}| () Int)
(declare-fun |!{$(in_main#0)<i>}.next| () Int)
(declare-fun |!{$(in_main#0)<k>}| () Int)
(declare-fun |!{$(in_main#0)<k>}.next| () Int)
(declare-fun |!{$(in_main#0)<a.1>}| () (Array Int Int))
(declare-fun |!{$(in_main#0)<a.1>}.next| () (Array Int Int))
(declare-fun |!{$(in_main#0)<b.2>}| () (Array Int Int))
(declare-fun |!{$(in_main#0)<b.2>}.next| () (Array Int Int))
(declare-fun |!{$(in_main#0)<c.3>}| () (Array Int Int))
(declare-fun |!{$(in_main#0)<c.3>}.next| () (Array Int Int))
(declare-fun |!{$(in_main#0)<$(in___VERIFIER_nondet_int#0)<h#<__VERIFIER_nondet_int.return>>>}| () Int)
(declare-fun |!{$(in_main#0)<$(in___VERIFIER_nondet_int#2)<h#<__VERIFIER_nondet_int.return>>>}| () Int)
(declare-fun |!{$(in_main#0)<$(in___VERIFIER_nondet_int#3)<h#<__VERIFIER_nondet_int.return>>>}| () Int)
(declare-fun !pc () Int)
(declare-fun !pc.next () Int)
(declare-fun |%{$(in_main#0)<k>}#1| () Int)
(declare-fun |%{$(in_main#0)<a.1>}#1| () (Array Int Int))
(declare-fun |%{$(in_main#0)<b.2>}#1| () (Array Int Int))
(declare-fun |%{$(in_main#0)<c.3>}#1| () (Array Int Int))
(define-fun .def_42 () Int (! !pc :next !pc.next))
(define-fun .def_45 () Bool (! (= .def_42 2) :init true))
(define-fun .def_191 () Bool (= .def_42 45))
(define-fun .def_163 () Bool (= !pc.next 91))
(define-fun .def_194 () Bool (and .def_163 .def_191))
(define-fun .def_8 () Int (! |!{$(in_main#0)<N>}| :next |!{$(in_main#0)<N>}.next|))
(define-fun .def_90 () Bool (= .def_8 |!{$(in_main#0)<N>}.next|))
(define-fun .def_64 () Bool (= |!{$(in_main#0)<i>}.next| 0))
(define-fun .def_185 () Bool (and .def_64 .def_90))
(define-fun .def_12 () Int (! |!{$(in_main#0)<k>}| :next |!{$(in_main#0)<k>}.next|))
(define-fun .def_94 () Bool (= .def_12 |!{$(in_main#0)<k>}.next|))
(define-fun .def_186 () Bool (and .def_94 .def_185))
(define-fun .def_14 () (Array Int Int) (! |!{$(in_main#0)<a.1>}| :next |!{$(in_main#0)<a.1>}.next|))
(define-fun .def_96 () Bool (= .def_14 |!{$(in_main#0)<a.1>}.next|))
(define-fun .def_187 () Bool (and .def_96 .def_186))
(define-fun .def_16 () (Array Int Int) (! |!{$(in_main#0)<b.2>}| :next |!{$(in_main#0)<b.2>}.next|))
(define-fun .def_98 () Bool (= .def_16 |!{$(in_main#0)<b.2>}.next|))
(define-fun .def_188 () Bool (and .def_98 .def_187))
(define-fun .def_18 () (Array Int Int) (! |!{$(in_main#0)<c.3>}| :next |!{$(in_main#0)<c.3>}.next|))
(define-fun .def_100 () Bool (= .def_18 |!{$(in_main#0)<c.3>}.next|))
(define-fun .def_189 () Bool (and .def_100 .def_188))
(define-fun .def_10 () Int (! |!{$(in_main#0)<i>}| :next |!{$(in_main#0)<i>}.next|))
(define-fun .def_137 () Bool (<= .def_8 .def_10))
(define-fun .def_190 () Bool (and .def_137 .def_189))
(define-fun .def_195 () Bool (and .def_190 .def_194))
(define-fun .def_76 () Bool (= !pc.next 45))
(define-fun .def_192 () Bool (and .def_76 .def_191))
(define-fun .def_177 () (Array Int Int) (store .def_16 .def_10 |!{$(in_main#0)<$(in___VERIFIER_nondet_int#3)<h#<__VERIFIER_nondet_int.return>>>}|))
(define-fun .def_180 () Bool (= |!{$(in_main#0)<b.2>}.next| .def_177))
(define-fun .def_176 () (Array Int Int) (store .def_14 .def_10 |!{$(in_main#0)<$(in___VERIFIER_nondet_int#2)<h#<__VERIFIER_nondet_int.return>>>}|))
(define-fun .def_178 () Bool (= |!{$(in_main#0)<a.1>}.next| .def_176))
(define-fun .def_145 () Int (* (- 1) |!{$(in_main#0)<i>}.next|))
(define-fun .def_146 () Int (+ .def_10 .def_145))
(define-fun .def_147 () Bool (= .def_146 (- 1)))
(define-fun .def_148 () Bool (and .def_90 .def_147))
(define-fun .def_149 () Bool (and .def_94 .def_148))
(define-fun .def_179 () Bool (and .def_149 .def_178))
(define-fun .def_181 () Bool (and .def_179 .def_180))
(define-fun .def_182 () Bool (and .def_100 .def_181))
(define-fun .def_170 () Bool (<= |!{$(in_main#0)<$(in___VERIFIER_nondet_int#2)<h#<__VERIFIER_nondet_int.return>>>}| |!{$(in_main#0)<$(in___VERIFIER_nondet_int#3)<h#<__VERIFIER_nondet_int.return>>>}|))
(define-fun .def_171 () Bool (not .def_170))
(define-fun .def_172 () Int (ite .def_171 1 0))
(define-fun .def_173 () Bool (= .def_172 0))
(define-fun .def_174 () Bool (not .def_173))
(define-fun .def_183 () Bool (and .def_174 .def_182))
(define-fun .def_138 () Bool (not .def_137))
(define-fun .def_184 () Bool (and .def_138 .def_183))
(define-fun .def_193 () Bool (and .def_184 .def_192))
(define-fun .def_196 () Bool (or .def_193 .def_195))
(define-fun .def_162 () Bool (= .def_42 91))
(define-fun .def_126 () Bool (= !pc.next 104))
(define-fun .def_166 () Bool (and .def_126 .def_162))
(define-fun .def_155 () Bool (= |!{$(in_main#0)<k>}.next| 1))
(define-fun .def_92 () Bool (= .def_10 |!{$(in_main#0)<i>}.next|))
(define-fun .def_103 () Bool (and .def_90 .def_92))
(define-fun .def_156 () Bool (and .def_103 .def_155))
(define-fun .def_157 () Bool (and .def_96 .def_156))
(define-fun .def_158 () Bool (and .def_98 .def_157))
(define-fun .def_159 () Bool (and .def_100 .def_158))
(define-fun .def_160 () Bool (and .def_137 .def_159))
(define-fun .def_167 () Bool (and .def_160 .def_166))
(define-fun .def_164 () Bool (and .def_162 .def_163))
(define-fun .def_140 () Int (select .def_16 .def_10))
(define-fun .def_141 () Int (* (- 1) .def_140))
(define-fun .def_139 () Int (select .def_14 .def_10))
(define-fun .def_142 () Int (+ .def_139 .def_141))
(define-fun .def_143 () (Array Int Int) (store .def_18 .def_10 .def_142))
(define-fun .def_152 () Bool (= |!{$(in_main#0)<c.3>}.next| .def_143))
(define-fun .def_150 () Bool (and .def_96 .def_149))
(define-fun .def_151 () Bool (and .def_98 .def_150))
(define-fun .def_153 () Bool (and .def_151 .def_152))
(define-fun .def_154 () Bool (and .def_138 .def_153))
(define-fun .def_165 () Bool (and .def_154 .def_164))
(define-fun .def_168 () Bool (or .def_165 .def_167))
(define-fun .def_130 () Bool (= !pc.next 0))
(define-fun .def_121 () Bool (= .def_42 104))
(define-fun .def_131 () Bool (and .def_121 .def_130))
(define-fun .def_79 () Bool (<= .def_8 .def_12))
(define-fun .def_114 () Bool (and .def_79 .def_90))
(define-fun .def_115 () Bool (and .def_92 .def_114))
(define-fun .def_116 () Bool (and .def_94 .def_115))
(define-fun .def_117 () Bool (and .def_96 .def_116))
(define-fun .def_118 () Bool (and .def_98 .def_117))
(define-fun .def_119 () Bool (and .def_100 .def_118))
(define-fun .def_132 () Bool (and .def_119 .def_131))
(define-fun .def_127 () Bool (and .def_121 .def_126))
(define-fun .def_105 () Int (* (- 1) |!{$(in_main#0)<k>}.next|))
(define-fun .def_106 () Int (+ .def_12 .def_105))
(define-fun .def_107 () Bool (= .def_106 (- 1)))
(define-fun .def_108 () Bool (and .def_103 .def_107))
(define-fun .def_109 () Bool (and .def_96 .def_108))
(define-fun .def_110 () Bool (and .def_98 .def_109))
(define-fun .def_111 () Bool (and .def_100 .def_110))
(define-fun .def_81 () Int (select .def_18 .def_12))
(define-fun .def_82 () Bool (<= .def_81 0))
(define-fun .def_83 () Bool (not .def_82))
(define-fun .def_84 () Int (ite .def_83 1 0))
(define-fun .def_85 () Bool (= .def_84 0))
(define-fun .def_86 () Bool (not .def_85))
(define-fun .def_112 () Bool (and .def_86 .def_111))
(define-fun .def_80 () Bool (not .def_79))
(define-fun .def_113 () Bool (and .def_80 .def_112))
(define-fun .def_128 () Bool (and .def_113 .def_127))
(define-fun .def_123 () Bool (= !pc.next 124))
(define-fun .def_124 () Bool (and .def_121 .def_123))
(define-fun .def_91 () Bool (and .def_85 .def_90))
(define-fun .def_93 () Bool (and .def_91 .def_92))
(define-fun .def_95 () Bool (and .def_93 .def_94))
(define-fun .def_97 () Bool (and .def_95 .def_96))
(define-fun .def_99 () Bool (and .def_97 .def_98))
(define-fun .def_101 () Bool (and .def_99 .def_100))
(define-fun .def_102 () Bool (and .def_80 .def_101))
(define-fun .def_125 () Bool (and .def_102 .def_124))
(define-fun .def_129 () Bool (or .def_125 .def_128))
(define-fun .def_133 () Bool (or .def_129 .def_132))
(define-fun .def_77 () Bool (and .def_45 .def_76))
(define-fun .def_72 () Bool (= |!{$(in_main#0)<c.3>}.next| |%{$(in_main#0)<c.3>}#1|))
(define-fun .def_70 () Bool (= |!{$(in_main#0)<b.2>}.next| |%{$(in_main#0)<b.2>}#1|))
(define-fun .def_68 () Bool (= |!{$(in_main#0)<a.1>}.next| |%{$(in_main#0)<a.1>}#1|))
(define-fun .def_66 () Bool (= |!{$(in_main#0)<k>}.next| |%{$(in_main#0)<k>}#1|))
(define-fun .def_63 () Bool (= |!{$(in_main#0)<N>}.next| |!{$(in_main#0)<$(in___VERIFIER_nondet_int#0)<h#<__VERIFIER_nondet_int.return>>>}|))
(define-fun .def_65 () Bool (and .def_63 .def_64))
(define-fun .def_67 () Bool (and .def_65 .def_66))
(define-fun .def_69 () Bool (and .def_67 .def_68))
(define-fun .def_71 () Bool (and .def_69 .def_70))
(define-fun .def_73 () Bool (and .def_71 .def_72))
(define-fun .def_58 () Bool (<= |!{$(in_main#0)<$(in___VERIFIER_nondet_int#0)<h#<__VERIFIER_nondet_int.return>>>}| 0))
(define-fun .def_59 () Bool (not .def_58))
(define-fun .def_60 () Int (ite .def_59 1 0))
(define-fun .def_61 () Bool (= .def_60 0))
(define-fun .def_62 () Bool (not .def_61))
(define-fun .def_74 () Bool (and .def_62 .def_73))
(define-fun .def_78 () Bool (and .def_74 .def_77))
(define-fun .def_134 () Bool (or .def_78 .def_133))
(define-fun .def_169 () Bool (or .def_134 .def_168))
(define-fun .def_197 () Bool (! (or .def_169 .def_196) :trans true))
(define-fun .def_135 () Bool (= .def_42 124))
(define-fun .def_198 () Bool (! (not .def_135) :invar-property 0 :invar-property-name ||))
(assert true)
